* #variable= 36 #constraint= 3 
+1 x1 -1 x19 +2 x2 -2 x20 +4 x3 -4 x21 +8 x4 -8 x22 +16 x5 -16 x23 +32 x6 -32 x24 +64 x7 -64 x25 +128 x8 -128 x26 +256 x9 -256 x27 +512 x10 -512 x28 +1024 x11 -1024 x29 +2048 x12 -2048 x30 +4096 x13 -4096 x31 +8192 x14 -8192 x32 +16384 x15 -16384 x33 +32768 x16 -32768 x34 +65536 x17 -65536 x35 +131072 x18 -131072 x36 = 0 ;
-1 x10 -1 x28 >= -1; 
+1 x10 +1 x28 >= 1; 
